&BANDS
  prefix = 'aiida'
  outdir = './out/'
  filband = 'si_bands.dat'
/